# Objective value = -395
x66 0
x67 0
x68 1
x69 0
x70 1
x71 1
x72 0
x73 1
x74 1
x75 1
x76 1
x77 0
x78 0
x79 0
x80 0
x81 0
x82 1
x83 1
x84 1
x85 1
x86 0
x87 0
x88 1
x89 1
x90 1
x91 1
x92 0
x93 1
x94 0
x95 1
x96 1
x97 1
x98 1
x99 0
x100 1
x101 1
x102 0
x103 1
x104 1
x105 1
x106 1
x107 0
x108 1
x109 1
x110 1
x111 1
x112 0
x113 0
x114 0
x115 0
x116 1
x117 0
x118 0
x119 0
x120 0
x121 0
x122 1
x123 1
x124 1
x125 1
x126 0
x127 1
x128 1
x129 1
x130 1
x131 0
x132 0
x133 1
x134 1
x135 1
x136 1
x137 0
x138 1
x139 1
x140 1
x141 1
x142 0
x143 1
x144 0
x145 1
x146 1
x147 1
x148 1
x149 0
x150 1
x151 1
x152 1
x153 1
x154 0
x155 1
x156 1
x157 0
x158 1
x159 1
x160 1
x161 1
x162 0
x163 1
x164 1
x165 1
x166 1
x167 0
x168 1
x169 1
x170 1
x171 1
x172 0
x173 0
x174 0
x175 0
x176 1
x177 0
x178 0
x179 0
x180 0
x181 1
x182 0
x183 0
x184 0
x185 0
x186 0
x187 1
x188 1
x189 1
x190 1
x191 1
x192 0
x193 1
x194 1
x195 1
x196 1
x197 1
x198 1
x199 1
x200 0
x201 0
x202 0
x203 1
x204 0
x205 0
x206 0
x207 0
x208 1
x209 1
x210 1
x211 1
x212 0
x213 1
x214 1
x215 0
x216 1
x217 0
x218 1
x219 1
x220 1
x221 1
x222 1
x223 1
x224 0
x225 1
x226 1
x227 0
x228 1
x229 1
x230 1
x231 1
x232 1
x233 1
x234 0
x235 1
x236 1
x237 1
x238 0
x239 1
x240 1
x241 0
x242 1
x243 1
x244 1
x245 0
x246 1
x247 1
x248 1
x249 0
x250 1
x251 0
x252 0
x253 0
x254 1
x255 0
x256 0
x257 1
x258 0
x259 0
x260 0
x261 0
x262 1
x263 0
x264 0
x265 0
x266 1
x267 0
x268 0
x269 0
x270 1
x271 0
x272 0
x273 0
x274 0
x275 1
x276 1
x277 0
x278 1
x279 1
x280 0
x281 1
x282 1
x283 1
x284 0
x285 1
x286 1
x287 1
x288 1
x289 0
x290 0
x291 1
x292 1
x293 1
x294 1
x295 0
x296 1
x297 1
x298 1
x299 0
x300 1
x301 1
x302 1
x303 1
x304 0
x305 0
x306 1
x307 1
x308 1
x309 1
x310 1
x311 0
x312 1
x313 1
x314 1
x315 0
x316 1
x317 1
x318 1
x319 1
x320 0
x321 0
x322 1
x323 1
x324 0
x325 1
x326 1
x327 1
x328 1
x329 0
x330 1
x331 1
x332 0
x333 1
x334 1
x335 1
x336 1
x337 0
x338 0
x339 1
x340 1
x341 1
x342 0
x343 1
x344 0
x345 0
x346 0
x347 1
x348 0
x349 0
x350 1
x351 0
x352 0
x353 0
x354 0
x355 1
x356 1
x357 0
x358 0
x359 0
x360 0
x361 1
x362 1
x363 1
x364 1
x365 1
x366 0
x367 1
x368 1
x369 0
x370 1
x371 1
x372 1
x373 1
x374 0
x375 0
x376 1
x377 1
x378 1
x379 1
x380 0
x381 1
x382 1
x383 1
x384 1
x385 1
x386 0
x387 1
x388 1
x389 0
x390 1
x391 1
x392 1
x393 1
x394 0
x395 0
x396 1
x397 1
x398 1
x399 1
x400 0
x401 1
x402 0
x403 1
x404 1
x405 1
x406 1
x407 1
x408 1
x409 0
x410 1
x411 1
x412 1
x413 0
x414 0
x415 0
x416 1
x417 0
x418 0
x419 1
x420 0
x421 0
x422 0
x423 0
x424 1
x425 1
x426 1
x427 1
x428 1
x429 1
x430 0
x431 1
x432 1
x433 1
x434 0
x435 0
x436 1
x437 1
x438 1
x439 1
x440 1
x441 1
x442 0
x443 1
x444 0
x445 1
x446 0
x447 1
x448 1
x449 0
x450 1
x451 0
x452 0
x453 0
x454 0
x455 0
x456 0
x457 1
x458 0
x459 1
x460 0
x461 0
x462 1
x463 1
x464 0
x465 1
x466 1
x467 1
x468 1
x469 1
x470 1
x471 0
x472 1
x473 0
x474 1
x475 1
x476 0
x477 1
x478 1
x479 0
x480 1
x481 1
x482 0
x483 1
x484 1
x485 1
x486 0
x487 1
x488 0
x489 1
x490 1
x491 0
x492 1
x493 1
x494 1
x495 0
x496 1
x497 1
x498 1
x499 1
x500 1
x501 1
x502 0
x503 1
x504 0
x505 1
x506 1
x507 0
x508 1
x509 1
x510 1
x511 1
x512 0
x513 1
x514 1
x515 0
x516 1
x517 1
x518 1
x519 1
x520 1
x521 0
x522 1
x523 1
x524 0
x525 1
x526 1
x527 1
x528 1
x529 1
x530 0
x531 1
x532 1
x533 0
x534 1
x535 1
x536 1
x537 0
x538 1
x539 0
x540 1
x541 1
x542 0
x543 1
x544 1
x545 1
x546 1
x547 1
x548 1
x549 0
x550 1
x551 1
x552 0
x553 1
x554 1
x555 1
x556 1
x557 1
x558 0
x559 1
x560 1
x561 0
x562 1
x563 1
x564 1
x565 1
x566 1
x567 0
x568 0
x569 1
x570 0
x571 1
x572 1
x573 0
x574 0
x575 0
x576 0
x577 0
x578 1
x579 0
x580 0
x581 1
x582 0
x583 0
x584 0
x585 0
x586 0
x587 0
x588 1
x589 1
x590 1
x591 1
x592 0
x593 0
x594 1
x595 0
x596 1
x597 1
x598 1
x599 0
x600 1
x601 1
x602 0
x603 1
x604 1
x605 1
x606 1
x607 1
x608 1
x609 0
x610 1
x611 1
x612 1
x613 1
x614 0
x615 1
x616 1
x617 0
x618 1
x619 1
x620 1
x621 0
x622 1
x623 1
x624 0
x625 1
x626 1
x627 1
x628 1
x629 1
x630 1
x631 0
x632 1
x633 1
x634 0
x635 0
x636 0
x637 1
x638 0
x639 0
x640 1
x641 0
x642 0
x643 0
x644 1
x645 0
x646 0
x647 1
x648 0
x649 0
x650 0
x651 0
x652 0
x653 0
x654 1
x655 0
x656 0
x657 1
x658 1
x659 1
x660 1
x661 0
x662 1
x663 1
x664 0
x665 1
x666 1
x667 1
x668 0
x669 1
x670 1
x671 0
x672 1
x673 1
x674 1
x675 1
x676 1
x677 1
x678 0
x679 1
x680 1
x681 0
x682 0
x683 1
x684 1
x685 1
x686 1
x687 1
x688 1
x689 0
x690 1
x691 1
x692 1
x693 0
x694 1
x695 1
x696 1
x697 1
x698 0
x699 1
x700 1
x701 1
x702 0
x703 1
x704 1
x705 0
x706 1
x707 1
x708 1
x709 0
x710 1
x711 1
x712 1
x713 1
x714 1
x715 0
x716 1
x717 1
x718 1
x719 1
x720 1
x721 1
x722 0
x723 1
x724 1
x725 1
x726 0
x727 1
x728 1
x729 1
x730 0
x731 1
x732 1
x733 1
x734 0
x735 0
x736 0
x737 0
x738 0
x739 0
x740 1
x741 0
x742 1
x743 0
x744 1
x745 0
x746 0
x747 1
x748 0
x749 0
x750 0
x751 0
x752 0
x753 1
x754 0
x755 1
x756 1
x757 1
x758 1
x759 1
x760 1
x761 0
x762 0
x763 1
x764 1
x765 1
x766 1
x767 1
x768 1
x769 1
x770 1
x771 0
x772 1
x773 1
x774 0
x775 1
x776 1
x777 1
x778 1
x779 1
x780 1
x781 0
x782 0
x783 1
x784 1
x785 1
x786 1
x787 1
x788 1
x789 1
x790 1
x791 0
x792 1
x793 0
x794 0
x795 1
x796 0
x797 0
x798 1
x799 0
x800 0
x801 0
x802 1
x803 1
x804 0
x805 0
x806 0
x807 0
x808 1
x809 0
x810 0
x811 0
x812 1
x813 0
x814 0
x815 1
x816 1
x817 0
x818 1
x819 1
x820 1
x821 1
x822 1
x823 1
x824 0
x825 0
x826 1
x827 1
x828 1
x829 0
x830 1
x831 1
x832 1
x833 1
x834 0
x835 1
x836 1
x837 0
x838 1
x839 1
x840 0
x841 1
x842 1
x843 0
x844 1
x845 1
x846 1
x847 1
x848 1
x849 0
x850 1
x851 1
x852 1
x853 0
x854 1
x855 1
x856 1
x857 0
x858 1
x859 1
x860 0
x861 1
x862 0
x863 0
x864 1
x865 0
x866 0
x867 1
x868 0
x869 0
x870 0
x871 1
x872 1
x873 0
x874 0
x875 0
x876 0
x877 1
x878 0
x879 0
x880 0
x881 1
x882 0
x883 0
x884 1
x885 0
x886 0
x887 1
x888 1
x889 0
x890 1
x891 1
x892 0
x893 1
x894 1
x895 1
x896 1
x897 1
x898 1
x899 1
x900 1
x901 1
x902 0
x903 1
x904 1
x905 1
x906 0
x907 1
x908 1
x909 0
x910 1
x911 1
x912 0
x913 1
x914 1
x915 0
x916 1
x917 0
x918 0
x919 1
x920 1
x921 1
x922 1
x923 1
x924 1
x925 1
x926 1
x927 1
x928 0
x929 1
x930 1
x931 1
x932 0
x933 1
x934 1
x935 0
x936 1
x937 1
x938 0
x939 1
x940 0
x941 0
x942 0
x943 0
x944 1
x945 1
x946 0
x947 1
x948 0
x949 0
x950 0
x951 1
x952 0
x953 0
x954 1
x955 0
x956 0
x957 0
x958 0
x959 1
x960 0
x961 0
x962 1
x963 0
x964 0
x965 1
x966 0
x967 0
x968 1
x969 1
x970 1
x971 1
x972 0
x973 1
x974 1
x975 0
x976 1
x977 1
x978 0
x979 1
x980 1
x981 1
x982 0
x983 1
x984 1
x985 1
x986 1
x987 0
x988 1
x989 1
x990 0
x991 1
x992 1
x993 0
x994 1
x995 1
x996 0
x997 0
x998 1
x999 1
x1000 1
x1001 0
x1002 1
x1003 1
x1004 0
x1005 1
x1006 1
x1007 1
x1008 1
x1009 1
x1010 1
x1011 0
x1012 1
x1013 1
x1014 1
x1015 1
x1016 0
x1017 1
x1018 1
x1019 0
x1020 1
x1021 1
x1022 0
x1023 1
x1024 1
x1025 0
x1026 1
x1027 1
x1028 1
x1029 1
x1030 1
x1031 0
x1032 1
x1033 1
x1034 0
x1035 1
x1036 1
x1037 1
x1038 1
x1039 1
x1040 1
x1041 0
x1042 1
x1043 1
x1044 1
x1045 1
x1046 0
x1047 1
x1048 1
x1049 0
x1050 1
x1051 1
x1052 0
x1053 1
x1054 1
x1055 0
x1056 1
x1057 1
x1 1
x3 0
x2 1
x4 0
x5 0
x6 0
x7 1
x8 0
x9 0
x10 0
x11 0
x12 1
x13 0
x14 0
x15 0
x16 0
x17 1
x18 0
x19 0
x20 1
x21 0
x22 0
x23 0
x24 0
x25 1
x26 1
x27 0
x28 0
x29 0
x30 0
x31 1
x32 0
x33 0
x34 0
x35 1
x36 0
x37 0
x38 1
x39 0
x40 0
x41 0
x42 0
x43 0
x44 0
x45 1
x46 0
x47 0
x48 1
x49 0
x50 0
x51 0
x52 0
x53 1
x54 0
x55 0
x56 1
x57 0
x58 0
x59 1
x60 0
x61 0
x62 1
x63 0
x64 0
x65 0
